c generated by sgen
p cnf 93 196
-2 -3 -4 0
-1 -3 -4 0
-1 -2 -4 0
-1 -2 -3 0
-6 -7 -8 0
-5 -7 -8 0
-5 -6 -8 0
-5 -6 -7 0
-10 -11 -12 0
-9 -11 -12 0
-9 -10 -12 0
-9 -10 -11 0
-14 -15 -16 0
-13 -15 -16 0
-13 -14 -16 0
-13 -14 -15 0
-18 -19 -20 0
-17 -19 -20 0
-17 -18 -20 0
-17 -18 -19 0
-22 -23 -24 0
-21 -23 -24 0
-21 -22 -24 0
-21 -22 -23 0
-26 -27 -28 0
-25 -27 -28 0
-25 -26 -28 0
-25 -26 -27 0
-30 -31 -32 0
-29 -31 -32 0
-29 -30 -32 0
-29 -30 -31 0
-34 -35 -36 0
-33 -35 -36 0
-33 -34 -36 0
-33 -34 -35 0
-38 -39 -40 0
-37 -39 -40 0
-37 -38 -40 0
-37 -38 -39 0
-42 -43 -44 0
-41 -43 -44 0
-41 -42 -44 0
-41 -42 -43 0
-46 -47 -48 0
-45 -47 -48 0
-45 -46 -48 0
-45 -46 -47 0
-50 -51 -52 0
-49 -51 -52 0
-49 -50 -52 0
-49 -50 -51 0
-54 -55 -56 0
-53 -55 -56 0
-53 -54 -56 0
-53 -54 -55 0
-58 -59 -60 0
-57 -59 -60 0
-57 -58 -60 0
-57 -58 -59 0
-62 -63 -64 0
-61 -63 -64 0
-61 -62 -64 0
-61 -62 -63 0
-66 -67 -68 0
-65 -67 -68 0
-65 -66 -68 0
-65 -66 -67 0
-70 -71 -72 0
-69 -71 -72 0
-69 -70 -72 0
-69 -70 -71 0
-74 -75 -76 0
-73 -75 -76 0
-73 -74 -76 0
-73 -74 -75 0
-78 -79 -80 0
-77 -79 -80 0
-77 -78 -80 0
-77 -78 -79 0
-82 -83 -84 0
-81 -83 -84 0
-81 -82 -84 0
-81 -82 -83 0
-86 -87 -88 0
-85 -87 -88 0
-85 -86 -88 0
-85 -86 -87 0
-89 -90 -91 0
-89 -90 -92 0
-89 -90 -93 0
-89 -91 -92 0
-89 -91 -93 0
-89 -92 -93 0
-90 -91 -92 0
-90 -91 -93 0
-90 -92 -93 0
-91 -92 -93 0
62 15 80 0
32 15 80 0
32 62 80 0
32 62 15 0
79 55 85 0
51 55 85 0
51 79 85 0
51 79 55 0
74 37 14 0
90 37 14 0
90 74 14 0
90 74 37 0
75 24 35 0
12 24 35 0
12 75 35 0
12 75 24 0
28 33 6 0
61 33 6 0
61 28 6 0
61 28 33 0
34 78 93 0
2 78 93 0
2 34 93 0
2 34 78 0
92 10 25 0
53 10 25 0
53 92 25 0
53 92 10 0
82 63 40 0
42 63 40 0
42 82 40 0
42 82 63 0
57 73 56 0
41 73 56 0
41 57 56 0
41 57 73 0
13 20 87 0
27 20 87 0
27 13 87 0
27 13 20 0
91 7 47 0
59 7 47 0
59 91 47 0
59 91 7 0
8 29 9 0
52 29 9 0
52 8 9 0
52 8 29 0
69 83 77 0
60 83 77 0
60 69 77 0
60 69 83 0
70 39 54 0
21 39 54 0
21 70 54 0
21 70 39 0
66 22 64 0
89 22 64 0
89 66 64 0
89 66 22 0
16 11 81 0
48 11 81 0
48 16 81 0
48 16 11 0
38 68 36 0
19 68 36 0
19 38 36 0
19 38 68 0
76 84 65 0
86 84 65 0
86 76 65 0
86 76 84 0
31 71 46 0
67 71 46 0
67 31 46 0
67 31 71 0
18 58 4 0
30 58 4 0
30 18 4 0
30 18 58 0
44 72 49 0
17 72 49 0
17 44 49 0
17 44 72 0
43 3 88 0
5 3 88 0
5 43 88 0
5 43 3 0
45 23 26 0
45 23 1 0
45 23 50 0
45 26 1 0
45 26 50 0
45 1 50 0
23 26 1 0
23 26 50 0
23 1 50 0
26 1 50 0
